
Gurobi 9.5.0 (win64) logging started Tue Dec  7 01:37:14 2021

Set parameter LogFile to value "../results/logs/log_2021_12_07_01_36.csv_11_61.log"
Set parameter Method to value 3
Gurobi Optimizer version 9.5.0 build v9.5.0rc5 (win64)
Thread count: 6 physical cores, 12 logical processors, using up to 12 threads
Optimize a model with 6334 rows, 8078 columns and 360309 nonzeros
Model fingerprint: 0x5df63bbb
Variable types: 4039 continuous, 4039 integer (4039 binary)
Coefficient statistics:
  Matrix range     [1e+00, 1e+01]
  Objective range  [1e+00, 1e+00]
  Bounds range     [1e+00, 1e+00]
  RHS range        [1e+00, 6e+01]
Found heuristic solution: objective 2904.0000000
Presolve removed 6089 rows and 7747 columns
Presolve time: 0.05s
Presolved: 245 rows, 331 columns, 2186 nonzeros
Variable types: 160 continuous, 171 integer (158 binary)
Found heuristic solution: objective 2942.0000000

Root relaxation: objective 3.037441e+03, 244 iterations, 0.00 seconds (0.00 work units)

    Nodes    |    Current Node    |     Objective Bounds      |     Work
 Expl Unexpl |  Obj  Depth IntInf | Incumbent    BestBd   Gap | It/Node Time

     0     0 3037.44089    0   67 2942.00000 3037.44089  3.24%     -    0s
H    0     0                    2988.0000000 3037.44089  1.65%     -    0s
H    0     0                    2989.0000000 3037.44089  1.62%     -    0s
H    0     0                    2991.0000000 3037.44089  1.55%     -    0s
H    0     0                    2994.0000000 3037.44089  1.45%     -    0s
     0     0 3019.78148    0   54 2994.00000 3019.78148  0.86%     -    0s
H    0     0                    3004.0000000 3019.78148  0.53%     -    0s
     0     0 3017.63275    0   54 3004.00000 3017.63275  0.45%     -    0s
     0     0 3017.51392    0   57 3004.00000 3017.51392  0.45%     -    0s
     0     0 3017.49727    0   57 3004.00000 3017.49727  0.45%     -    0s
     0     0 3014.08784    0   32 3004.00000 3014.08784  0.34%     -    0s
H    0     0                    3005.0000000 3014.08784  0.30%     -    0s
     0     0 3014.03620    0   34 3005.00000 3014.03620  0.30%     -    0s
     0     0 3013.98469    0   37 3005.00000 3013.98469  0.30%     -    0s
     0     0 3013.98401    0   37 3005.00000 3013.98401  0.30%     -    0s
     0     0 3013.30218    0   30 3005.00000 3013.30218  0.28%     -    0s
H    0     0                    3009.0000000 3013.04162  0.13%     -    0s
     0     0 3013.04162    0   40 3009.00000 3013.04162  0.13%     -    0s
     0     0 3013.00260    0   34 3009.00000 3013.00260  0.13%     -    0s
     0     0 3012.99025    0   34 3009.00000 3012.99025  0.13%     -    0s
H    0     0                    3012.0000000 3012.99025  0.03%     -    0s

Cutting planes:
  Gomory: 21
  Implied bound: 4
  MIR: 105
  RLT: 18
  Relax-and-lift: 1

Explored 1 nodes (659 simplex iterations) in 0.19 seconds (0.09 work units)
Thread count was 12 (of 12 available processors)

Solution count 10: 3012 3009 3005 ... 2904

Optimal solution found (tolerance 1.00e-04)
Best objective 3.012000000000e+03, best bound 3.012000000000e+03, gap 0.0000%
